%BLOCK LATTICE_CART
       8.099000000000000       0.000000000000000       0.000000000000000
       0.000000000000000       8.099000000000000       0.000000000000000
       0.000000000000000       0.000000000000000       8.099000000000000
%ENDBLOCK LATTICE_CART

%BLOCK POSITIONS_FRAC
 Al   0.0000000000000000    0.0000000000000000    0.0000000000000000
 Al   0.0000000000000000    0.2500000000000000    0.2500000000000000
 Al   0.2500000000000000    0.0000000000000000    0.2500000000000000
 Al   0.2500000000000000    0.2500000000000000    0.0000000000000000
 Al   0.5000000000000000    0.0000000000000000    0.0000000000000000
 Al   0.5000000000000000    0.2500000000000000    0.2500000000000000
 Al   0.7500000000000000    0.0000000000000000    0.2500000000000000
 Al   0.7500000000000000    0.2500000000000000    0.0000000000000000
 Al   0.0000000000000000    0.5000000000000000    0.0000000000000000
 Al   0.0000000000000000    0.7500000000000000    0.2500000000000000
 Al   0.2500000000000000    0.5000000000000000    0.2500000000000000
 Al   0.2500000000000000    0.7500000000000000    0.0000000000000000
 Al   0.5000000000000000    0.5000000000000000    0.0000000000000000
 Al   0.5000000000000000    0.7500000000000000    0.2500000000000000
 Al   0.7500000000000000    0.5000000000000000    0.2500000000000000
 Al   0.7500000000000000    0.7500000000000000    0.0000000000000000
 Al   0.0000000000000000    0.0000000000000000    0.5000000000000000
 Al   0.0000000000000000    0.2500000000000000    0.7500000000000000
 Al   0.2500000000000000    0.0000000000000000    0.7500000000000000
 Al   0.2500000000000000    0.2500000000000000    0.5000000000000000
 Al   0.5000000000000000    0.0000000000000000    0.5000000000000000
 Al   0.5000000000000000    0.2500000000000000    0.7500000000000000
 Al   0.7500000000000000    0.0000000000000000    0.7500000000000000
 Al   0.7500000000000000    0.2500000000000000    0.5000000000000000
 Al   0.0000000000000000    0.5000000000000000    0.5000000000000000
 Al   0.0000000000000000    0.7500000000000000    0.7500000000000000
 Al   0.2500000000000000    0.5000000000000000    0.7500000000000000
 Al   0.2500000000000000    0.7500000000000000    0.5000000000000000
 Al   0.5000000000000000    0.5000000000000000    0.5000000000000000
 Al   0.5000000000000000    0.7500000000000000    0.7500000000000000
 Al   0.7500000000000000    0.5000000000000000    0.7500000000000000
 Al   0.7500000000000000    0.7500000000000000    0.5000000000000000
%ENDBLOCK POSITIONS_FRAC

%BLOCK KPOINTS_LIST
   0.3333333333333333    0.3333333333333333    0.3333333333333333       0.074074074074074
   0.3333333333333333    0.3333333333333333    0.0000000000000000       0.074074074074074
   0.3333333333333333    0.3333333333333333   -0.3333333333333333       0.074074074074074
   0.3333333333333333    0.0000000000000000    0.3333333333333333       0.074074074074074
   0.3333333333333333    0.0000000000000000    0.0000000000000000       0.074074074074074
   0.3333333333333333    0.0000000000000000   -0.3333333333333333       0.074074074074074
   0.3333333333333333   -0.3333333333333333    0.3333333333333333       0.074074074074074
   0.3333333333333333   -0.3333333333333333    0.0000000000000000       0.074074074074074
   0.3333333333333333   -0.3333333333333333   -0.3333333333333333       0.074074074074074
   0.0000000000000000    0.3333333333333333    0.3333333333333333       0.074074074074074
   0.0000000000000000    0.3333333333333333    0.0000000000000000       0.074074074074074
   0.0000000000000000    0.3333333333333333   -0.3333333333333333       0.074074074074074
   0.0000000000000000    0.0000000000000000    0.3333333333333333       0.074074074074074
   0.0000000000000000    0.0000000000000000    0.0000000000000000       0.037037037037037
%ENDBLOCK KPOINTS_LIST

FIX_COM : false
%BLOCK IONIC_CONSTRAINTS
%ENDBLOCK IONIC_CONSTRAINTS

%BLOCK EXTERNAL_EFIELD
    0.0000000000     0.0000000000     0.0000000000 
%ENDBLOCK EXTERNAL_EFIELD

%BLOCK EXTERNAL_PRESSURE
    0.0000000000    0.0000000000    0.0000000000
                    0.0000000000    0.0000000000
                                    0.0000000000
%ENDBLOCK EXTERNAL_PRESSURE

%BLOCK SPECIES_MASS
      Al     26.9820003510
%ENDBLOCK SPECIES_MASS

%BLOCK SPECIES_POT
      Al  3|2.2|2.2|1.4|3.5|5|7|30UU:31UU:32U2U2[]
%ENDBLOCK SPECIES_POT

%BLOCK SPECIES_LCAO_STATES
      Al         2
%ENDBLOCK SPECIES_LCAO_STATES

