%BLOCK LATTICE_CART
       5.089632475668341      -2.947881074472920       0.000002520027541
      -0.000000000000000       5.881693951949921      -0.000004289400702
      -0.000000000000000      -0.000000000000000       9.303325207717061
%ENDBLOCK LATTICE_CART

%BLOCK POSITIONS_FRAC
 Al   0.8330803512413180    0.6668959883453530    0.8749213258534150
 Ti   0.1668996661660650    0.3330407972944230    0.1249500894848710
 Ti   0.3330295742998631    0.1669267875100250    0.3750946912347170
 Ti   0.6669664608568090    0.3330547043096650    0.1249343165870130
 Ti   0.8331102578713400    0.1669048430479960    0.3751092270276630
 Ti   0.1669391450580880    0.8330608191819461    0.1249189436340990
 Ti   0.3330463872743800    0.6668895953481710    0.3750648777557860
 Ti   0.6669486385288490    0.8330984285382810    0.1249201193180600
 Ti   0.8330864715378909    0.6669605398468250    0.3751169533910170
 Ti   0.1669589893260970    0.3331188236753880    0.6250728068592450
 Ti   0.3330540978569210    0.1669563265662880    0.8749261578204480
 Ti   0.6668901314859240    0.3330768763788240    0.6250283340887999
 Ti   0.8330999250301210    0.1669639769152630    0.8748802089675222
 Ti   0.1669437423841950    0.8330895258435240    0.6250680854468250
 Ti   0.3330574073670550    0.6668857202872032    0.8749352006652890
 Ti   0.6668887537150860    0.8330762469108273    0.6250586618652330
%ENDBLOCK POSITIONS_FRAC

%BLOCK KPOINTS_LIST
   0.3750000000000000    0.3750000000000000    0.2500000000000000       0.062500000000000
   0.3750000000000000    0.3750000000000000   -0.2500000000000000       0.062500000000000
   0.3750000000000000    0.1250000000000000    0.2500000000000000       0.062500000000000
   0.3750000000000000    0.1250000000000000   -0.2500000000000000       0.062500000000000
   0.3750000000000000   -0.1250000000000000    0.2500000000000000       0.062500000000000
   0.3750000000000000   -0.1250000000000000   -0.2500000000000000       0.062500000000000
   0.3750000000000000   -0.3750000000000000    0.2500000000000000       0.062500000000000
   0.3750000000000000   -0.3750000000000000   -0.2500000000000000       0.062500000000000
   0.1250000000000000    0.3750000000000000    0.2500000000000000       0.062500000000000
   0.1250000000000000    0.3750000000000000   -0.2500000000000000       0.062500000000000
   0.1250000000000000    0.1250000000000000    0.2500000000000000       0.062500000000000
   0.1250000000000000    0.1250000000000000   -0.2500000000000000       0.062500000000000
   0.1250000000000000   -0.1250000000000000    0.2500000000000000       0.062500000000000
   0.1250000000000000   -0.1250000000000000   -0.2500000000000000       0.062500000000000
   0.1250000000000000   -0.3750000000000000    0.2500000000000000       0.062500000000000
   0.1250000000000000   -0.3750000000000000   -0.2500000000000000       0.062500000000000
%ENDBLOCK KPOINTS_LIST

FIX_COM : false
%BLOCK IONIC_CONSTRAINTS
%ENDBLOCK IONIC_CONSTRAINTS

%BLOCK EXTERNAL_EFIELD
    0.0000000000     0.0000000000     0.0000000000 
%ENDBLOCK EXTERNAL_EFIELD

%BLOCK EXTERNAL_PRESSURE
    0.0000000000    0.0000000000    0.0000000000
                    0.0000000000    0.0000000000
                                    0.0000000000
%ENDBLOCK EXTERNAL_PRESSURE

%BLOCK SPECIES_MASS
      Al     26.9820003510
      Ti     47.9000015259
%ENDBLOCK SPECIES_MASS

%BLOCK SPECIES_POT
      Al  3|2.2|2.2|1.4|3.5|5|7|30UU:31UU:32U2U2[]
      Ti  3|1.8|10|12|14|30U:40UU:31UU:32UU(qc=5.5)[]
%ENDBLOCK SPECIES_POT

%BLOCK SPECIES_LCAO_STATES
      Al         2
      Ti         5
%ENDBLOCK SPECIES_LCAO_STATES

