%BLOCK LATTICE_CART
       5.110589112812721      -2.950599999999999       0.000000000000000
       0.000000000000000       5.901200000000001       0.000000000000000
       0.000000000000000       0.000000000000000       9.357600000000000
%ENDBLOCK LATTICE_CART

%BLOCK POSITIONS_FRAC
 Ti   0.1666666666666668    0.3333333333333336    0.1250000000000000
 Ti   0.3333333333333334    0.1666666666666666    0.3750000000000004
 Ti   0.6666666666666667    0.3333333333333336    0.1250000000000000
 Ti   0.8333333333333334    0.1666666666666665    0.3750000000000004
 Ti   0.1666666666666668    0.8333333333333338    0.1250000000000000
 Ti   0.3333333333333334    0.6666666666666665    0.3750000000000004
 Ti   0.6666666666666667    0.8333333333333337    0.1250000000000000
 Ti   0.8333333333333334    0.6666666666666664    0.3750000000000004
 Ti   0.1666666666666668    0.3333333333333336    0.6249999999999999
 Ti   0.3333333333333334    0.1666666666666666    0.8750000000000002
 Ti   0.6666666666666667    0.3333333333333336    0.6249999999999999
 Ti   0.8333333333333334    0.1666666666666665    0.8750000000000002
 Ti   0.1666666666666668    0.8333333333333338    0.6249999999999999
 Ti   0.3333333333333334    0.6666666666666665    0.8750000000000002
 Ti   0.6666666666666667    0.8333333333333337    0.6249999999999999
 Ti   0.8333333333333334    0.6666666666666664    0.8750000000000002
%ENDBLOCK POSITIONS_FRAC

%BLOCK KPOINTS_LIST
   0.3750000000000000    0.3750000000000000    0.2500000000000000       0.062500000000000
   0.3750000000000000    0.3750000000000000   -0.2500000000000000       0.062500000000000
   0.3750000000000000    0.1250000000000000    0.2500000000000000       0.062500000000000
   0.3750000000000000    0.1250000000000000   -0.2500000000000000       0.062500000000000
   0.3750000000000000   -0.1250000000000000    0.2500000000000000       0.062500000000000
   0.3750000000000000   -0.1250000000000000   -0.2500000000000000       0.062500000000000
   0.3750000000000000   -0.3750000000000000    0.2500000000000000       0.062500000000000
   0.3750000000000000   -0.3750000000000000   -0.2500000000000000       0.062500000000000
   0.1250000000000000    0.3750000000000000    0.2500000000000000       0.062500000000000
   0.1250000000000000    0.3750000000000000   -0.2500000000000000       0.062500000000000
   0.1250000000000000    0.1250000000000000    0.2500000000000000       0.062500000000000
   0.1250000000000000    0.1250000000000000   -0.2500000000000000       0.062500000000000
   0.1250000000000000   -0.1250000000000000    0.2500000000000000       0.062500000000000
   0.1250000000000000   -0.1250000000000000   -0.2500000000000000       0.062500000000000
   0.1250000000000000   -0.3750000000000000    0.2500000000000000       0.062500000000000
   0.1250000000000000   -0.3750000000000000   -0.2500000000000000       0.062500000000000
%ENDBLOCK KPOINTS_LIST

FIX_COM : false
%BLOCK IONIC_CONSTRAINTS
%ENDBLOCK IONIC_CONSTRAINTS

%BLOCK EXTERNAL_EFIELD
    0.0000000000     0.0000000000     0.0000000000 
%ENDBLOCK EXTERNAL_EFIELD

%BLOCK EXTERNAL_PRESSURE
    0.0000000000    0.0000000000    0.0000000000
                    0.0000000000    0.0000000000
                                    0.0000000000
%ENDBLOCK EXTERNAL_PRESSURE

%BLOCK SPECIES_MASS
      Ti     47.9000015259
%ENDBLOCK SPECIES_MASS

%BLOCK SPECIES_POT
      Ti  3|1.8|10|12|14|30U:40UU:31UU:32UU(qc=5.5)[]
%ENDBLOCK SPECIES_POT

%BLOCK SPECIES_LCAO_STATES
      Ti         5
%ENDBLOCK SPECIES_LCAO_STATES

